NAME          
ROWS
 N  OBJ
 L  c1
COLUMNS
    MARKER    'MARKER'                 'INTORG'
    x[1]      c1        731
    x[1]      OBJ       -755
    x[2]      c1        667
    x[2]      OBJ       -711
    x[3]      c1        895
    x[3]      OBJ       -937
    x[4]      c1        112
    x[4]      OBJ       -80
    x[5]      c1        695
    x[5]      OBJ       -697
    x[6]      c1        347
    x[6]      OBJ       -248
    x[7]      c1        776
    x[7]      OBJ       -810
    x[8]      c1        566
    x[8]      OBJ       -647
    x[9]      c1        513
    x[9]      OBJ       -551
    x[10]     c1        111
    x[10]     OBJ       -152
RHS
    rhs       c1        2706
RANGES
BOUNDS
 BV bounds    x[1]
 BV bounds    x[2]
 BV bounds    x[3]
 BV bounds    x[4]
 BV bounds    x[5]
 BV bounds    x[6]
 BV bounds    x[7]
 BV bounds    x[8]
 BV bounds    x[9]
 BV bounds    x[10]
ENDATA
